80 865168612
36 61 32 37 21 39 57 20 58 31 56 60 76 9 4 26 73 16 64 15 51 23 22 79 43 48 47 5 8 10 49 71 80 6 54 46 78 30 19 18 69 55 62 40 63 7 53 33 42 67 28 41 2 24 27 14 17 70 25 3 44 1 35 68 52 38 59 72 13 65 34 75 77 29 45 74 50 12 11 66 
